17	4	3
30	41	38	35	49	25	37	
0	0	0	0	0	5	3	1	2	2	1	3	2	3	4
4	1	2	5	9	8	3	4	1	10	8	2	8	17
5	5	9	2	9	6	2	10	7	2	1	2	6	11
3	6	8	1	9	10	7	9	10	5	8	2	5	17
2	5	8	3	9	4	10	1	9	10	1	3	10	12	13
200	5	7	4	6	7	5	4	8	7	6	3	7	9	14
25	3	2	8	6	8	4	8	2	5	8	2	10	17
250	4	10	1	6	10	10	9	9	7	1	1	17
250	2	1	9	2	9	6	7	8	6	2	2	17	17
225	8	4	8	9	5	9	2	6	8	1	2	15	17
225	2	6	10	2	7	4	6	1	1	2	2	17	17
175	7	6	8	2	6	9	6	3	10	10	2	15	17
10	10	9	8	4	10	9	10	9	8	6	2	17	17
8	2	2	2	10	9	7	2	6	4	7	2	16	17
10	2	2	10	6	7	9	6	8	5	3	1	17
2	10	8	4	3	9	2	6	4	2	7	1	17
0	0	0	0	0	6	8	6	1	10	5	0
